This is Ipopt version 3.10.1, running with linear solver mumps.

Number of nonzeros in equality constraint Jacobian...:      141
Number of nonzeros in inequality constraint Jacobian.:        0
Number of nonzeros in Lagrangian Hessian.............:     2019

Total number of variables............................:       72
                     variables with only lower bounds:        0
                variables with lower and upper bounds:       72
                     variables with only upper bounds:        0
Total number of equality constraints.................:       47
Total number of inequality constraints...............:        0
        inequality constraints with only lower bounds:        0
   inequality constraints with lower and upper bounds:        0
        inequality constraints with only upper bounds:        0

iter    objective    inf_pr   inf_du lg(mu)  ||d||  lg(rg) alpha_du alpha_pr  ls
   0 -1.5201230e-03 1.00e-02 4.91e-03  -1.0 0.00e+00    -  0.00e+00 0.00e+00   0
   1 -1.5389146e-03 2.22e-16 1.12e-03  -1.7 1.95e-02    -  9.91e-01 1.00e+00h  1
   2 -1.4986468e-03 2.22e-16 1.69e-03  -2.5 3.43e-02    -  9.87e-01 1.00e+00f  1
   3 -1.5745060e-03 2.22e-16 3.23e-04  -3.8 4.51e-02    -  9.65e-01 1.00e+00f  1
   4 -2.3999755e-03 4.44e-16 1.12e-03  -5.7 6.95e-02  -2.0 8.82e-01 1.00e+00f  1
   5 -3.1809240e-03 4.58e-13 1.72e-03  -5.7 5.50e-02  -1.6 1.00e+00 7.94e-01f  1
   6 -3.6733777e-03 2.22e-16 1.83e-03  -5.7 2.46e-02  -1.1 1.00e+00 1.00e+00f  1
   7 -6.2911638e-03 1.03e-12 4.49e-03  -5.7 1.59e-01  -1.6 1.00e+00 5.08e-01f  1
   8 -7.1911253e-03 1.27e-12 7.79e-03  -5.7 6.46e-02  -1.2 1.00e+00 3.52e-01f  1
   9 -7.1860229e-03 1.27e-12 7.29e-03  -5.7 1.20e+00  -1.7 7.23e-03 1.11e-04f 12
iter    objective    inf_pr   inf_du lg(mu)  ||d||  lg(rg) alpha_du alpha_pr  ls
  10 -7.1746709e-03 1.27e-12 1.63e-02  -5.7 2.21e+01  -1.3 6.64e-03 4.08e-05f 10
  11 -4.7770503e-03 8.91e-13 1.19e-02  -5.7 6.03e-01  -1.7 1.08e-01 2.96e-01h  1
  12 -6.2618508e-03 2.22e-16 2.94e-03  -5.7 5.28e-02  -1.3 1.00e+00 1.00e+00f  1
  13 -7.2639981e-03 1.39e-12 3.42e-03  -5.7 2.49e-02  -0.9 1.00e+00 1.00e+00f  1
  14 -9.1028989e-03 1.15e-12 1.39e-02  -5.7 2.09e-01  -1.4 1.00e+00 1.74e-01f  1
  15 -1.0319435e-02 1.19e-12 5.42e-03  -5.7 5.19e-02  -0.9 1.00e+00 3.66e-01f  1
  16 -1.3008512e-02 2.20e-12 4.61e-02  -5.7 1.06e+00  -1.4 4.08e-01 3.86e-02f  1
  17 -1.7482923e-02 3.40e-12 1.05e-02  -5.7 1.08e-01  -1.0 1.00e+00 5.06e-01f  1
  18 -1.7479799e-02 3.40e-12 1.05e-02  -5.7 4.04e-01  -1.5 2.64e-02 9.47e-05f 14
  19 -1.7472794e-02 3.40e-12 1.05e-02  -5.7 2.11e+01  -1.0 2.76e-03 7.94e-06f 13
iter    objective    inf_pr   inf_du lg(mu)  ||d||  lg(rg) alpha_du alpha_pr  ls
  20 -1.3900640e-02 1.09e-12 3.34e-02  -5.7 5.00e-01  -1.5 2.27e-01 6.80e-01h  1
  21 -2.0411060e-02 3.60e-13 1.76e-02  -5.7 1.07e-01  -1.1 1.00e+00 6.69e-01f  1
  22 -2.0654646e-02 5.57e-13 2.16e-02  -5.7 5.14e-02  -0.7 1.00e+00 3.48e-02f  1
  23 -2.2912292e-02 1.54e-12 1.38e-01  -5.7 6.28e-01  -1.1 1.00e+00 2.46e-02f  1
  24 -2.7546150e-02 4.26e-12 1.61e-02  -5.7 6.54e-02  -0.7 1.00e+00 4.14e-01f  1
  25 -3.1276919e-02 5.41e-12 1.33e-02  -5.7 2.35e-02  -0.3 1.00e+00 8.31e-01f  1
  26 -3.8503342e-02 6.43e-12 3.39e-02  -5.7 1.56e-01  -0.8 1.00e+00 2.78e-01f  1
  27 -3.8501741e-02 6.43e-12 3.06e-02  -5.7 3.63e-01  -1.2 4.94e-02 3.20e-05f 15
  28 -4.1457975e-02 7.08e-12 7.87e-02  -5.7 2.02e-01  -0.8 1.00e+00 6.58e-02f  1
  29 -4.3488157e-02 6.47e-12 2.40e-02  -5.7 3.94e-02  -0.4 1.00e+00 2.00e-01f  1
iter    objective    inf_pr   inf_du lg(mu)  ||d||  lg(rg) alpha_du alpha_pr  ls
  30 -4.8128672e-02 7.92e-12 1.27e-01  -5.7 2.97e-01  -0.9 1.00e+00 6.76e-02f  1
  31 -5.2944147e-02 5.18e-12 2.47e-02  -5.7 5.12e-02  -0.4 1.00e+00 3.47e-01f  1
  32 -6.0545827e-02 9.19e-12 5.29e-02  -5.7 4.42e-01  -0.9 3.26e-01 9.22e-02f  1
  33 -6.4013654e-02 9.03e-12 1.99e-01  -5.7 8.96e-01  -1.4 3.89e-01 1.70e-02f  1
  34 -1.0373241e-01 1.11e-15 2.51e-02  -5.7 1.45e-01  -1.0 1.00e+00 1.00e+00f  1
  35 -3.2202330e-02 6.66e-16 2.15e-01  -5.7 1.61e+00  -1.4 1.34e-02 2.93e-01h  1
  36 -3.2431778e-02 6.66e-16 1.52e-01  -5.7 1.04e-01  -1.0 5.55e-01 1.56e-02f  7
  37 -3.2432858e-02 6.66e-16 1.70e-01  -5.7 1.17e+00  -1.5 2.20e-01 9.89e-06f 15
  38 -4.1720369e-02 7.77e-16 1.12e-01  -5.7 1.40e-01  -1.1 8.25e-02 5.00e-01f  2
  39 -4.5391996e-02 5.55e-16 3.68e-02  -5.7 5.31e-02  -0.6 8.07e-01 5.00e-01f  2
iter    objective    inf_pr   inf_du lg(mu)  ||d||  lg(rg) alpha_du alpha_pr  ls
  40 -5.5072388e-02 2.22e-16 2.52e-02  -5.7 2.08e-01  -1.1 1.41e-01 3.38e-01f  1
  41 -6.0769399e-02 3.33e-16 3.14e-02  -5.7 6.35e-01  -1.6 2.71e-01 1.07e-01f  1
  42 -6.4502019e-02 3.33e-16 2.43e-02  -5.7 2.43e-01  -1.2 3.19e-02 1.75e-01f  1
  43 -7.4667743e-02 3.33e-16 1.14e-01  -5.7 6.86e-01  -1.6 7.40e-01 1.13e-01f  1
  44 -7.5248504e-02 2.22e-16 1.24e-01  -5.7 2.12e-01  -1.2 5.71e-04 1.93e-02f  1
  45 -7.5248562e-02 3.33e-16 1.16e-01  -5.7 7.27e-02  -0.8 6.69e-01 5.84e-06f 16
  46 -8.2511105e-02 3.33e-16 1.02e-01  -5.7 2.42e-01  -1.3 6.26e-01 1.91e-01f  1
  47 -8.2511118e-02 3.33e-16 9.90e-02  -5.7 7.02e-02  -0.8 1.00e+00 1.11e-06f 20
  48 -1.2110700e-01 3.33e-16 4.58e-02  -5.7 3.40e-01  -1.3 7.54e-01 5.80e-01f  1
  49 -1.2614230e-01 2.22e-16 1.13e-01  -5.7 2.11e-01  -0.9 7.36e-01 9.50e-02f  1
iter    objective    inf_pr   inf_du lg(mu)  ||d||  lg(rg) alpha_du alpha_pr  ls
  50 -1.3010717e-01 9.19e-12 5.79e-02  -5.7 5.32e-02  -0.5 1.00e+00 3.47e-01f  1
  51 -1.3345167e-01 8.67e-12 5.67e-02  -5.7 2.98e-01  -0.9 1.12e-01 5.72e-02f  1
  52 -1.3886181e-01 4.10e-12 1.33e-01  -5.7 6.73e-02  -0.5 1.49e-01 5.27e-01f  1
  53 -1.4455741e-01 6.56e-12 1.57e-01  -5.7 3.42e-01  -1.0 1.00e+00 9.82e-02f  1
  54 -1.4455568e-01 6.56e-12 1.35e-01  -5.7 7.14e-01    -  6.22e-02 2.73e-05f 15
  55 -1.3109087e-01 8.19e-12 2.02e-01  -5.7 6.50e-01    -  7.34e-03 5.33e-01h  1
  56 -1.3174330e-01 7.93e-12 1.81e-01  -5.7 3.02e-01    -  1.44e-01 3.25e-02f  1
  57 -1.3331665e-01 7.32e-12 1.80e-01  -5.7 4.69e-01  -1.5 4.02e-03 7.68e-02f  1
  58 -1.3331109e-01 7.31e-12 1.58e-01  -5.7 3.15e-01  -1.0 8.73e-01 3.34e-04f 11
  59 -1.4426910e-01 5.20e-12 1.19e-01  -5.7 5.57e-01  -1.5 1.24e-01 2.90e-01f  1
iter    objective    inf_pr   inf_du lg(mu)  ||d||  lg(rg) alpha_du alpha_pr  ls
  60 -1.4669464e-01 1.08e-12 2.47e-02  -5.7 3.45e-02  -0.2 8.61e-01 7.92e-01f  1
  61 -1.7933189e-01 4.19e-13 5.50e-02  -5.7 3.04e-01  -0.7 6.22e-01 6.12e-01f  1
  62 -2.2052066e-01 3.27e-11 7.99e-02  -5.7 1.05e-01  -0.2 5.95e-01 1.00e+00f  1
  63 -1.4797477e-01 1.22e-11 1.79e-01  -5.7 4.12e-01  -0.7 1.27e-01 6.28e-01h  1
  64 -1.8178105e-01 7.07e-12 2.25e-01  -5.7 1.22e+00  -0.3 3.20e-01 4.20e-01f  1
  65 -1.9528276e-01 5.34e-11 1.58e-01  -5.7 3.75e-02   0.1 9.47e-01 5.40e-01f  1
  66 -2.3451702e-01 4.56e-11 2.73e-01  -5.7 4.08e-01  -0.3 1.00e+00 1.47e-01f  1
  67 -2.9322419e-01 2.22e-16 8.34e-02  -5.7 6.26e-02   0.1 1.00e+00 1.00e+00f  1
  68 -3.5742171e-01 2.22e-16 1.14e+00  -5.7 1.36e+00  -0.4 4.56e-01 4.01e-02f  1
  69 -5.6071872e-01 7.56e-11 1.81e-01  -5.7 1.32e-01   0.0 1.00e+00 9.51e-01f  1
iter    objective    inf_pr   inf_du lg(mu)  ||d||  lg(rg) alpha_du alpha_pr  ls
  70 -5.8300773e-01 7.50e-11 5.87e-01  -5.7 3.73e-01  -0.5 4.19e-01 1.02e-01f  1
  71 -7.1235210e-01 1.21e-10 2.62e+00  -5.7 1.77e+00  -0.9 4.89e-01 9.89e-02f  1
  72 -9.9367596e-01 3.92e-10 3.38e+00  -5.7 3.05e+00  -1.4 2.68e-01 1.28e-01f  1
  73 -9.9362879e-01 3.92e-10 1.05e+00  -5.7 7.49e-02    -  1.00e+00 6.84e-04f 11
  74 -9.9959957e-01 3.90e-10 2.25e-01  -5.7 2.91e-03    -  1.00e+00 8.49e-01f  1
  75 -9.9963484e-01 3.39e-10 7.14e-01  -5.7 7.85e-05    -  2.14e-02 1.32e-01f  1
  76 -9.9981009e-01 3.41e-10 2.86e-01  -5.7 6.81e-05    -  1.00e+00 7.54e-01f  1
  77 -9.9986745e-01 2.22e-16 1.43e-09  -5.7 1.76e-05    -  1.00e+00 1.00e+00f  1
  78 -1.0000001e+00 2.22e-16 9.45e-09  -8.6 2.23e-05    -  1.00e+00 1.00e+00f  1

Number of Iterations....: 78

                                   (scaled)                 (unscaled)
Objective...............:  -1.0000001281355855e+00   -1.0000001281355855e+00
Dual infeasibility......:   9.4471973798854542e-09    9.4471973798854542e-09
Constraint violation....:   2.2204460492503131e-16    2.2204460492503131e-16
Complementarity.........:   6.0320101231979922e-09    6.0320101231979922e-09
Overall NLP error.......:   9.4471973798854542e-09    9.4471973798854542e-09


Number of objective function evaluations             = 240
Number of objective gradient evaluations             = 79
Number of equality constraint evaluations            = 240
Number of inequality constraint evaluations          = 0
Number of equality constraint Jacobian evaluations   = 1
Number of inequality constraint Jacobian evaluations = 0
Number of Lagrangian Hessian evaluations             = 78
Total CPU secs in IPOPT (w/o function evaluations)   =      0.180
Total CPU secs in NLP function evaluations           =      1.720

EXIT: Optimal Solution Found.
